src/verif_ll/half_adder/FPV_cvr/model/design_smt2.smt2
; SMT-LIBv2 description generated by Yosys 0.37 (git sha1 a5c7f69ed8f, clang 14.0.6 -fPIC -Os)
; yosys-smt2-module half_adder
(declare-sort |half_adder_s| 0)
(declare-fun |half_adder_is| (|half_adder_s|) Bool)
; yosys-smt2-anyinit half_adder#0 1 half_adder.sv:30.2-38.5
; yosys-smt2-witness {"offset": 0, "path": ["\\_witness_", "\\anyinit_procdff_151"], "smtname": 0, "smtoffset": 0, "type": "init", "width": 1}
(declare-fun |half_adder#0| (|half_adder_s|) (_ BitVec 1)) ; \_witness_.anyinit_procdff_151
(declare-fun |half_adder#1| (|half_adder_s|) (_ BitVec 1)) ; \rstn
(define-fun |half_adder#2| ((state |half_adder_s|)) (_ BitVec 1) (ite (= ((_ extract 0 0) (|half_adder#1| state)) #b1) (|half_adder#0| state) #b0)) ; \sum_out
; yosys-smt2-wire sum_out 1
(define-fun |half_adder_n sum_out| ((state |half_adder_s|)) Bool (= ((_ extract 0 0) (|half_adder#2| state)) #b1))
(declare-fun |half_adder#3| (|half_adder_s|) Bool) ; \a
(declare-fun |half_adder#4| (|half_adder_s|) Bool) ; \b
(define-fun |half_adder#5| ((state |half_adder_s|)) Bool (and (or  (|half_adder#3| state) false) (or  (|half_adder#4| state) false))) ; \carry_next
(define-fun |half_adder#6| ((state |half_adder_s|)) Bool (not (or  (|half_adder#5| state) false))) ; \prc_half_adder_comb.s_nand
(define-fun |half_adder#7| ((state |half_adder_s|)) Bool (or  (|half_adder#3| state) false  (|half_adder#4| state) false)) ; \prc_half_adder_comb.s_or
(define-fun |half_adder#8| ((state |half_adder_s|)) Bool (and (or  (|half_adder#6| state) false) (or  (|half_adder#7| state) false))) ; \sum_next
; yosys-smt2-wire sum_next 1
(define-fun |half_adder_n sum_next| ((state |half_adder_s|)) Bool (|half_adder#8| state))
; yosys-smt2-output sum 1
; yosys-smt2-wire sum 1
(define-fun |half_adder_n sum| ((state |half_adder_s|)) Bool (= ((_ extract 0 0) (|half_adder#2| state)) #b1))
; yosys-smt2-input rstn 1
; yosys-smt2-wire rstn 1
; yosys-smt2-witness {"offset": 0, "path": ["\\rstn"], "smtname": "rstn", "smtoffset": 0, "type": "input", "width": 1}
(define-fun |half_adder_n rstn| ((state |half_adder_s|)) Bool (= ((_ extract 0 0) (|half_adder#1| state)) #b1))
; yosys-smt2-wire prc_half_adder_comb.s_or 1
(define-fun |half_adder_n prc_half_adder_comb.s_or| ((state |half_adder_s|)) Bool (|half_adder#7| state))
; yosys-smt2-wire prc_half_adder_comb.s_nand 1
(define-fun |half_adder_n prc_half_adder_comb.s_nand| ((state |half_adder_s|)) Bool (|half_adder#6| state))
; yosys-smt2-anyinit half_adder#9 1 half_adder.sv:62.3-72.6
; yosys-smt2-witness {"offset": 0, "path": ["\\_witness_", "\\anyinit_procdff_148"], "smtname": 9, "smtoffset": 0, "type": "init", "width": 1}
(declare-fun |half_adder#9| (|half_adder_s|) (_ BitVec 1)) ; \_witness_.anyinit_procdff_148
(define-fun |half_adder#10| ((state |half_adder_s|)) (_ BitVec 1) (ite (= ((_ extract 0 0) (|half_adder#1| state)) #b1) (|half_adder#9| state) #b0)) ; \f_a
; yosys-smt2-anyinit half_adder#11 1 half_adder.sv:62.3-72.6
; yosys-smt2-witness {"offset": 0, "path": ["\\_witness_", "\\anyinit_procdff_149"], "smtname": 11, "smtoffset": 0, "type": "init", "width": 1}
(declare-fun |half_adder#11| (|half_adder_s|) (_ BitVec 1)) ; \_witness_.anyinit_procdff_149
(define-fun |half_adder#12| ((state |half_adder_s|)) (_ BitVec 1) (ite (= ((_ extract 0 0) (|half_adder#1| state)) #b1) (|half_adder#11| state) #b0)) ; \f_b
(define-fun |half_adder#13| ((state |half_adder_s|)) (_ BitVec 1) (bvxor (|half_adder#10| state) (|half_adder#12| state))) ; $xor$half_adder.sv:59$21_Y
(define-fun |half_adder#14| ((state |half_adder_s|)) (_ BitVec 1) (bvxor (|half_adder#13| state) (|half_adder#2| state))) ; \f_sum
; yosys-smt2-wire f_sum 1
(define-fun |half_adder_n f_sum| ((state |half_adder_s|)) Bool (= ((_ extract 0 0) (|half_adder#14| state)) #b1))
; yosys-smt2-witness {"offset": 0, "path": ["$auto$async2sync.cc:171:execute$157"], "smtname": 15, "smtoffset": 0, "type": "reg", "width": 1}
(declare-fun |half_adder#15| (|half_adder_s|) (_ BitVec 1)) ; $auto$async2sync.cc:171:execute$157
(define-fun |half_adder#16| ((state |half_adder_s|)) (_ BitVec 1) (ite (= ((_ extract 0 0) (|half_adder#1| state)) #b1) (|half_adder#15| state) #b0)) ; \f_past_valid
; yosys-smt2-wire f_past_valid 1
(define-fun |half_adder_n f_past_valid| ((state |half_adder_s|)) Bool (= ((_ extract 0 0) (|half_adder#16| state)) #b1))
(define-fun |half_adder#17| ((state |half_adder_s|)) (_ BitVec 1) (bvand (|half_adder#10| state) (|half_adder#12| state))) ; $and$half_adder.sv:60$23_Y
; yosys-smt2-anyinit half_adder#18 1 half_adder.sv:30.2-38.5
; yosys-smt2-witness {"offset": 0, "path": ["\\_witness_", "\\anyinit_procdff_152"], "smtname": 18, "smtoffset": 0, "type": "init", "width": 1}
(declare-fun |half_adder#18| (|half_adder_s|) (_ BitVec 1)) ; \_witness_.anyinit_procdff_152
(define-fun |half_adder#19| ((state |half_adder_s|)) (_ BitVec 1) (ite (= ((_ extract 0 0) (|half_adder#1| state)) #b1) (|half_adder#18| state) #b0)) ; \carry_out
(define-fun |half_adder#20| ((state |half_adder_s|)) (_ BitVec 1) (bvxor (|half_adder#17| state) (|half_adder#19| state))) ; \f_carry
; yosys-smt2-wire f_carry 1
(define-fun |half_adder_n f_carry| ((state |half_adder_s|)) Bool (= ((_ extract 0 0) (|half_adder#20| state)) #b1))
; yosys-smt2-wire f_b 1
(define-fun |half_adder_n f_b| ((state |half_adder_s|)) Bool (= ((_ extract 0 0) (|half_adder#12| state)) #b1))
; yosys-smt2-wire f_a 1
(define-fun |half_adder_n f_a| ((state |half_adder_s|)) Bool (= ((_ extract 0 0) (|half_adder#10| state)) #b1))
(declare-fun |half_adder#21| (|half_adder_s|) Bool) ; \clk
; yosys-smt2-input clk 1
; yosys-smt2-wire clk 1
; yosys-smt2-clock clk posedge
; yosys-smt2-witness {"offset": 0, "path": ["\\clk"], "smtname": "clk", "smtoffset": 0, "type": "posedge", "width": 1}
; yosys-smt2-witness {"offset": 0, "path": ["\\clk"], "smtname": "clk", "smtoffset": 0, "type": "input", "width": 1}
(define-fun |half_adder_n clk| ((state |half_adder_s|)) Bool (|half_adder#21| state))
; yosys-smt2-wire carry_out 1
(define-fun |half_adder_n carry_out| ((state |half_adder_s|)) Bool (= ((_ extract 0 0) (|half_adder#19| state)) #b1))
; yosys-smt2-wire carry_next 1
(define-fun |half_adder_n carry_next| ((state |half_adder_s|)) Bool (|half_adder#5| state))
; yosys-smt2-output carry 1
; yosys-smt2-wire carry 1
(define-fun |half_adder_n carry| ((state |half_adder_s|)) Bool (= ((_ extract 0 0) (|half_adder#19| state)) #b1))
; yosys-smt2-input b 1
; yosys-smt2-wire b 1
; yosys-smt2-witness {"offset": 0, "path": ["\\b"], "smtname": "b", "smtoffset": 0, "type": "input", "width": 1}
(define-fun |half_adder_n b| ((state |half_adder_s|)) Bool (|half_adder#4| state))
; yosys-smt2-input a 1
; yosys-smt2-wire a 1
; yosys-smt2-witness {"offset": 0, "path": ["\\a"], "smtname": "a", "smtoffset": 0, "type": "input", "width": 1}
(define-fun |half_adder_n a| ((state |half_adder_s|)) Bool (|half_adder#3| state))
; yosys-smt2-anyseq half_adder#22 1 $auto$setundef.cc:533:execute$185
; yosys-smt2-witness {"offset": 0, "path": ["\\_witness_", "\\anyseq_auto_setundef_cc_533_execute_185"], "smtname": 22, "smtoffset": 0, "type": "seq", "width": 1}
(declare-fun |half_adder#22| (|half_adder_s|) (_ BitVec 1)) ; \_witness_.anyseq_auto_setundef_cc_533_execute_185
; yosys-smt2-wire _witness_.anyseq_auto_setundef_cc_533_execute_185 1
(define-fun |half_adder_n _witness_.anyseq_auto_setundef_cc_533_execute_185| ((state |half_adder_s|)) Bool (= ((_ extract 0 0) (|half_adder#22| state)) #b1))
; yosys-smt2-anyseq half_adder#23 1 $auto$setundef.cc:533:execute$183
; yosys-smt2-witness {"offset": 0, "path": ["\\_witness_", "\\anyseq_auto_setundef_cc_533_execute_183"], "smtname": 23, "smtoffset": 0, "type": "seq", "width": 1}
(declare-fun |half_adder#23| (|half_adder_s|) (_ BitVec 1)) ; \_witness_.anyseq_auto_setundef_cc_533_execute_183
; yosys-smt2-wire _witness_.anyseq_auto_setundef_cc_533_execute_183 1
(define-fun |half_adder_n _witness_.anyseq_auto_setundef_cc_533_execute_183| ((state |half_adder_s|)) Bool (= ((_ extract 0 0) (|half_adder#23| state)) #b1))
; yosys-smt2-anyseq half_adder#24 1 $auto$setundef.cc:533:execute$181
; yosys-smt2-witness {"offset": 0, "path": ["\\_witness_", "\\anyseq_auto_setundef_cc_533_execute_181"], "smtname": 24, "smtoffset": 0, "type": "seq", "width": 1}
(declare-fun |half_adder#24| (|half_adder_s|) (_ BitVec 1)) ; \_witness_.anyseq_auto_setundef_cc_533_execute_181
; yosys-smt2-wire _witness_.anyseq_auto_setundef_cc_533_execute_181 1
(define-fun |half_adder_n _witness_.anyseq_auto_setundef_cc_533_execute_181| ((state |half_adder_s|)) Bool (= ((_ extract 0 0) (|half_adder#24| state)) #b1))
; yosys-smt2-anyseq half_adder#25 1 $auto$setundef.cc:533:execute$179
; yosys-smt2-witness {"offset": 0, "path": ["\\_witness_", "\\anyseq_auto_setundef_cc_533_execute_179"], "smtname": 25, "smtoffset": 0, "type": "seq", "width": 1}
(declare-fun |half_adder#25| (|half_adder_s|) (_ BitVec 1)) ; \_witness_.anyseq_auto_setundef_cc_533_execute_179
; yosys-smt2-wire _witness_.anyseq_auto_setundef_cc_533_execute_179 1
(define-fun |half_adder_n _witness_.anyseq_auto_setundef_cc_533_execute_179| ((state |half_adder_s|)) Bool (= ((_ extract 0 0) (|half_adder#25| state)) #b1))
; yosys-smt2-anyseq half_adder#26 1 $auto$setundef.cc:533:execute$177
; yosys-smt2-witness {"offset": 0, "path": ["\\_witness_", "\\anyseq_auto_setundef_cc_533_execute_177"], "smtname": 26, "smtoffset": 0, "type": "seq", "width": 1}
(declare-fun |half_adder#26| (|half_adder_s|) (_ BitVec 1)) ; \_witness_.anyseq_auto_setundef_cc_533_execute_177
; yosys-smt2-wire _witness_.anyseq_auto_setundef_cc_533_execute_177 1
(define-fun |half_adder_n _witness_.anyseq_auto_setundef_cc_533_execute_177| ((state |half_adder_s|)) Bool (= ((_ extract 0 0) (|half_adder#26| state)) #b1))
; yosys-smt2-anyseq half_adder#27 1 $auto$setundef.cc:533:execute$175
; yosys-smt2-witness {"offset": 0, "path": ["\\_witness_", "\\anyseq_auto_setundef_cc_533_execute_175"], "smtname": 27, "smtoffset": 0, "type": "seq", "width": 1}
(declare-fun |half_adder#27| (|half_adder_s|) (_ BitVec 1)) ; \_witness_.anyseq_auto_setundef_cc_533_execute_175
; yosys-smt2-wire _witness_.anyseq_auto_setundef_cc_533_execute_175 1
(define-fun |half_adder_n _witness_.anyseq_auto_setundef_cc_533_execute_175| ((state |half_adder_s|)) Bool (= ((_ extract 0 0) (|half_adder#27| state)) #b1))
; yosys-smt2-register _witness_.anyinit_procdff_152 1
; yosys-smt2-wire _witness_.anyinit_procdff_152 1
(define-fun |half_adder_n _witness_.anyinit_procdff_152| ((state |half_adder_s|)) Bool (= ((_ extract 0 0) (|half_adder#18| state)) #b1))
; yosys-smt2-register _witness_.anyinit_procdff_151 1
; yosys-smt2-wire _witness_.anyinit_procdff_151 1
(define-fun |half_adder_n _witness_.anyinit_procdff_151| ((state |half_adder_s|)) Bool (= ((_ extract 0 0) (|half_adder#0| state)) #b1))
; yosys-smt2-register _witness_.anyinit_procdff_149 1
; yosys-smt2-wire _witness_.anyinit_procdff_149 1
(define-fun |half_adder_n _witness_.anyinit_procdff_149| ((state |half_adder_s|)) Bool (= ((_ extract 0 0) (|half_adder#11| state)) #b1))
; yosys-smt2-register _witness_.anyinit_procdff_148 1
; yosys-smt2-wire _witness_.anyinit_procdff_148 1
(define-fun |half_adder_n _witness_.anyinit_procdff_148| ((state |half_adder_s|)) Bool (= ((_ extract 0 0) (|half_adder#9| state)) #b1))
; yosys-smt2-anyinit half_adder#28 1 half_adder.sv:74.9-96.12
; yosys-smt2-witness {"offset": 0, "path": ["\\_witness_", "\\anyinit_procdff_146"], "smtname": 28, "smtoffset": 0, "type": "init", "width": 1}
(declare-fun |half_adder#28| (|half_adder_s|) (_ BitVec 1)) ; \_witness_.anyinit_procdff_146
; yosys-smt2-register _witness_.anyinit_procdff_146 1
; yosys-smt2-wire _witness_.anyinit_procdff_146 1
(define-fun |half_adder_n _witness_.anyinit_procdff_146| ((state |half_adder_s|)) Bool (= ((_ extract 0 0) (|half_adder#28| state)) #b1))
; yosys-smt2-anyinit half_adder#29 1 half_adder.sv:74.9-96.12
; yosys-smt2-witness {"offset": 0, "path": ["\\_witness_", "\\anyinit_procdff_144"], "smtname": 29, "smtoffset": 0, "type": "init", "width": 1}
(declare-fun |half_adder#29| (|half_adder_s|) (_ BitVec 1)) ; \_witness_.anyinit_procdff_144
; yosys-smt2-register _witness_.anyinit_procdff_144 1
; yosys-smt2-wire _witness_.anyinit_procdff_144 1
(define-fun |half_adder_n _witness_.anyinit_procdff_144| ((state |half_adder_s|)) Bool (= ((_ extract 0 0) (|half_adder#29| state)) #b1))
; yosys-smt2-anyinit half_adder#30 1 half_adder.sv:74.9-96.12
; yosys-smt2-witness {"offset": 0, "path": ["\\_witness_", "\\anyinit_procdff_142"], "smtname": 30, "smtoffset": 0, "type": "init", "width": 1}
(declare-fun |half_adder#30| (|half_adder_s|) (_ BitVec 1)) ; \_witness_.anyinit_procdff_142
; yosys-smt2-register _witness_.anyinit_procdff_142 1
; yosys-smt2-wire _witness_.anyinit_procdff_142 1
(define-fun |half_adder_n _witness_.anyinit_procdff_142| ((state |half_adder_s|)) Bool (= ((_ extract 0 0) (|half_adder#30| state)) #b1))
; yosys-smt2-anyinit half_adder#31 1 half_adder.sv:74.9-96.12
; yosys-smt2-witness {"offset": 0, "path": ["\\_witness_", "\\anyinit_procdff_140"], "smtname": 31, "smtoffset": 0, "type": "init", "width": 1}
(declare-fun |half_adder#31| (|half_adder_s|) (_ BitVec 1)) ; \_witness_.anyinit_procdff_140
; yosys-smt2-register _witness_.anyinit_procdff_140 1
; yosys-smt2-wire _witness_.anyinit_procdff_140 1
(define-fun |half_adder_n _witness_.anyinit_procdff_140| ((state |half_adder_s|)) Bool (= ((_ extract 0 0) (|half_adder#31| state)) #b1))
; yosys-smt2-anyinit half_adder#32 1 half_adder.sv:74.9-96.12
; yosys-smt2-witness {"offset": 0, "path": ["\\_witness_", "\\anyinit_procdff_138"], "smtname": 32, "smtoffset": 0, "type": "init", "width": 1}
(declare-fun |half_adder#32| (|half_adder_s|) (_ BitVec 1)) ; \_witness_.anyinit_procdff_138
; yosys-smt2-register _witness_.anyinit_procdff_138 1
; yosys-smt2-wire _witness_.anyinit_procdff_138 1
(define-fun |half_adder_n _witness_.anyinit_procdff_138| ((state |half_adder_s|)) Bool (= ((_ extract 0 0) (|half_adder#32| state)) #b1))
; yosys-smt2-anyinit half_adder#33 1 half_adder.sv:74.9-96.12
; yosys-smt2-witness {"offset": 0, "path": ["\\_witness_", "\\anyinit_procdff_136"], "smtname": 33, "smtoffset": 0, "type": "init", "width": 1}
(declare-fun |half_adder#33| (|half_adder_s|) (_ BitVec 1)) ; \_witness_.anyinit_procdff_136
; yosys-smt2-register _witness_.anyinit_procdff_136 1
; yosys-smt2-wire _witness_.anyinit_procdff_136 1
(define-fun |half_adder_n _witness_.anyinit_procdff_136| ((state |half_adder_s|)) Bool (= ((_ extract 0 0) (|half_adder#33| state)) #b1))
; yosys-smt2-anyinit half_adder#34 1 half_adder.sv:74.9-96.12
; yosys-smt2-witness {"offset": 0, "path": ["\\_witness_", "\\anyinit_procdff_134"], "smtname": 34, "smtoffset": 0, "type": "init", "width": 1}
(declare-fun |half_adder#34| (|half_adder_s|) (_ BitVec 1)) ; \_witness_.anyinit_procdff_134
; yosys-smt2-register _witness_.anyinit_procdff_134 1
; yosys-smt2-wire _witness_.anyinit_procdff_134 1
(define-fun |half_adder_n _witness_.anyinit_procdff_134| ((state |half_adder_s|)) Bool (= ((_ extract 0 0) (|half_adder#34| state)) #b1))
; yosys-smt2-anyinit half_adder#35 1 half_adder.sv:74.9-96.12
; yosys-smt2-witness {"offset": 0, "path": ["\\_witness_", "\\anyinit_procdff_132"], "smtname": 35, "smtoffset": 0, "type": "init", "width": 1}
(declare-fun |half_adder#35| (|half_adder_s|) (_ BitVec 1)) ; \_witness_.anyinit_procdff_132
; yosys-smt2-register _witness_.anyinit_procdff_132 1
; yosys-smt2-wire _witness_.anyinit_procdff_132 1
(define-fun |half_adder_n _witness_.anyinit_procdff_132| ((state |half_adder_s|)) Bool (= ((_ extract 0 0) (|half_adder#35| state)) #b1))
; yosys-smt2-anyinit half_adder#36 1 half_adder.sv:74.9-96.12
; yosys-smt2-witness {"offset": 0, "path": ["\\_witness_", "\\anyinit_procdff_130"], "smtname": 36, "smtoffset": 0, "type": "init", "width": 1}
(declare-fun |half_adder#36| (|half_adder_s|) (_ BitVec 1)) ; \_witness_.anyinit_procdff_130
; yosys-smt2-register _witness_.anyinit_procdff_130 1
; yosys-smt2-wire _witness_.anyinit_procdff_130 1
(define-fun |half_adder_n _witness_.anyinit_procdff_130| ((state |half_adder_s|)) Bool (= ((_ extract 0 0) (|half_adder#36| state)) #b1))
; yosys-smt2-anyinit half_adder#37 1 half_adder.sv:74.9-96.12
; yosys-smt2-witness {"offset": 0, "path": ["\\_witness_", "\\anyinit_procdff_128"], "smtname": 37, "smtoffset": 0, "type": "init", "width": 1}
(declare-fun |half_adder#37| (|half_adder_s|) (_ BitVec 1)) ; \_witness_.anyinit_procdff_128
; yosys-smt2-register _witness_.anyinit_procdff_128 1
; yosys-smt2-wire _witness_.anyinit_procdff_128 1
(define-fun |half_adder_n _witness_.anyinit_procdff_128| ((state |half_adder_s|)) Bool (= ((_ extract 0 0) (|half_adder#37| state)) #b1))
; yosys-smt2-anyinit half_adder#38 1 half_adder.sv:74.9-96.12
; yosys-smt2-witness {"offset": 0, "path": ["\\_witness_", "\\anyinit_procdff_126"], "smtname": 38, "smtoffset": 0, "type": "init", "width": 1}
(declare-fun |half_adder#38| (|half_adder_s|) (_ BitVec 1)) ; \_witness_.anyinit_procdff_126
; yosys-smt2-register _witness_.anyinit_procdff_126 1
; yosys-smt2-wire _witness_.anyinit_procdff_126 1
(define-fun |half_adder_n _witness_.anyinit_procdff_126| ((state |half_adder_s|)) Bool (= ((_ extract 0 0) (|half_adder#38| state)) #b1))
; yosys-smt2-anyinit half_adder#39 1 half_adder.sv:74.9-96.12
; yosys-smt2-witness {"offset": 0, "path": ["\\_witness_", "\\anyinit_procdff_124"], "smtname": 39, "smtoffset": 0, "type": "init", "width": 1}
(declare-fun |half_adder#39| (|half_adder_s|) (_ BitVec 1)) ; \_witness_.anyinit_procdff_124
; yosys-smt2-register _witness_.anyinit_procdff_124 1
; yosys-smt2-wire _witness_.anyinit_procdff_124 1
(define-fun |half_adder_n _witness_.anyinit_procdff_124| ((state |half_adder_s|)) Bool (= ((_ extract 0 0) (|half_adder#39| state)) #b1))
; yosys-smt2-witness {"offset": 0, "path": ["$formal$half_adder.sv:86$5_EN"], "smtname": 40, "smtoffset": 0, "type": "reg", "width": 1}
(declare-fun |half_adder#40| (|half_adder_s|) (_ BitVec 1)) ; $formal$half_adder.sv:86$5_EN
; yosys-smt2-register $formal$half_adder.sv:86$5_EN 1
(define-fun |half_adder_n $formal$half_adder.sv:86$5_EN| ((state |half_adder_s|)) Bool (= ((_ extract 0 0) (|half_adder#40| state)) #b1))
; yosys-smt2-witness {"offset": 0, "path": ["$formal$half_adder.sv:80$3_EN"], "smtname": 41, "smtoffset": 0, "type": "reg", "width": 1}
(declare-fun |half_adder#41| (|half_adder_s|) (_ BitVec 1)) ; $formal$half_adder.sv:80$3_EN
; yosys-smt2-register $formal$half_adder.sv:80$3_EN 1
(define-fun |half_adder_n $formal$half_adder.sv:80$3_EN| ((state |half_adder_s|)) Bool (= ((_ extract 0 0) (|half_adder#41| state)) #b1))
; yosys-smt2-witness {"offset": 0, "path": ["$formal$half_adder.sv:76$1_EN"], "smtname": 42, "smtoffset": 0, "type": "reg", "width": 1}
(declare-fun |half_adder#42| (|half_adder_s|) (_ BitVec 1)) ; $formal$half_adder.sv:76$1_EN
; yosys-smt2-register $formal$half_adder.sv:76$1_EN 1
(define-fun |half_adder_n $formal$half_adder.sv:76$1_EN| ((state |half_adder_s|)) Bool (= ((_ extract 0 0) (|half_adder#42| state)) #b1))
; yosys-smt2-register $auto$async2sync.cc:171:execute$157 1
(define-fun |half_adder_n $auto$async2sync.cc:171:execute$157| ((state |half_adder_s|)) Bool (= ((_ extract 0 0) (|half_adder#15| state)) #b1))
(define-fun |half_adder#43| ((state |half_adder_s|)) (_ BitVec 1) (bvnot (ite (|half_adder#21| state) #b1 #b0))) ; $auto$rtlil.cc:2461:Not$188
; yosys-smt2-assume 0 $auto$formalff.cc:758:execute$189
(define-fun |half_adder_u 0| ((state |half_adder_s|)) Bool (or (= ((_ extract 0 0) (|half_adder#43| state)) #b1) (not true))) ; $auto$formalff.cc:758:execute$189
; yosys-smt2-cover 0 cover_ab4
(define-fun |half_adder_c 0| ((state |half_adder_s|)) Bool (and (= ((_ extract 0 0) (|half_adder#28| state)) #b1) (= ((_ extract 0 0) (|half_adder#40| state)) #b1))) ; cover_ab4
; yosys-smt2-cover 1 cover_ab3
(define-fun |half_adder_c 1| ((state |half_adder_s|)) Bool (and (= ((_ extract 0 0) (|half_adder#29| state)) #b1) (= ((_ extract 0 0) (|half_adder#40| state)) #b1))) ; cover_ab3
; yosys-smt2-cover 2 cover_ab2
(define-fun |half_adder_c 2| ((state |half_adder_s|)) Bool (and (= ((_ extract 0 0) (|half_adder#30| state)) #b1) (= ((_ extract 0 0) (|half_adder#40| state)) #b1))) ; cover_ab2
; yosys-smt2-cover 3 cover_ab1
(define-fun |half_adder_c 3| ((state |half_adder_s|)) Bool (and (= ((_ extract 0 0) (|half_adder#31| state)) #b1) (= ((_ extract 0 0) (|half_adder#40| state)) #b1))) ; cover_ab1
; yosys-smt2-cover 4 cov_sum_true
(define-fun |half_adder_c 4| ((state |half_adder_s|)) Bool (and (= ((_ extract 0 0) (|half_adder#35| state)) #b1) (= ((_ extract 0 0) (|half_adder#40| state)) #b1))) ; cov_sum_true
; yosys-smt2-cover 5 cov_sum_false
(define-fun |half_adder_c 5| ((state |half_adder_s|)) Bool (and (= ((_ extract 0 0) (|half_adder#34| state)) #b1) (= ((_ extract 0 0) (|half_adder#40| state)) #b1))) ; cov_sum_false
; yosys-smt2-cover 6 cov_carry_true
(define-fun |half_adder_c 6| ((state |half_adder_s|)) Bool (and (= ((_ extract 0 0) (|half_adder#33| state)) #b1) (= ((_ extract 0 0) (|half_adder#40| state)) #b1))) ; cov_carry_true
; yosys-smt2-cover 7 cov_carry_false
(define-fun |half_adder_c 7| ((state |half_adder_s|)) Bool (and (= ((_ extract 0 0) (|half_adder#32| state)) #b1) (= ((_ extract 0 0) (|half_adder#40| state)) #b1))) ; cov_carry_false
; yosys-smt2-assert 0 assert_sum_reset
(define-fun |half_adder_a 0| ((state |half_adder_s|)) Bool (or (= ((_ extract 0 0) (|half_adder#39| state)) #b1) (not (= ((_ extract 0 0) (|half_adder#42| state)) #b1)))) ; assert_sum_reset
; yosys-smt2-assert 1 assert_sum_
(define-fun |half_adder_a 1| ((state |half_adder_s|)) Bool (or (= ((_ extract 0 0) (|half_adder#37| state)) #b1) (not (= ((_ extract 0 0) (|half_adder#41| state)) #b1)))) ; assert_sum_
; yosys-smt2-assert 2 assert_carry_reset
(define-fun |half_adder_a 2| ((state |half_adder_s|)) Bool (or (= ((_ extract 0 0) (|half_adder#38| state)) #b1) (not (= ((_ extract 0 0) (|half_adder#42| state)) #b1)))) ; assert_carry_reset
; yosys-smt2-assert 3 assert_carry
(define-fun |half_adder_a 3| ((state |half_adder_s|)) Bool (or (= ((_ extract 0 0) (|half_adder#36| state)) #b1) (not (= ((_ extract 0 0) (|half_adder#41| state)) #b1)))) ; assert_carry
(define-fun |half_adder#44| ((state |half_adder_s|)) (_ BitVec 1) (ite (= ((_ extract 0 0) (|half_adder#1| state)) #b1) #b0 #b1)) ; $0$formal$half_adder.sv:76$1_EN[0:0]$29
(define-fun |half_adder#45| ((state |half_adder_s|)) (_ BitVec 1) (ite (= ((_ extract 0 0) (|half_adder#16| state)) #b1) #b1 #b0)) ; $procmux$104_Y
(define-fun |half_adder#46| ((state |half_adder_s|)) (_ BitVec 1) (ite (= ((_ extract 0 0) (|half_adder#1| state)) #b1) (|half_adder#45| state) #b0)) ; $0$formal$half_adder.sv:80$3_EN[0:0]$33
(define-fun |half_adder#47| ((state |half_adder_s|)) Bool (not (or  (= ((_ extract 0 0) (|half_adder#2| state)) #b1) false))) ; $0$formal$half_adder.sv:87$6_CHECK[0:0]$38
(define-fun |half_adder#48| ((state |half_adder_s|)) (_ BitVec 1) (ite (= ((_ extract 0 0) (|half_adder#1| state)) #b1) (|half_adder#22| state) (ite (|half_adder#47| state) #b1 #b0))) ; $0$formal$half_adder.sv:76$1_CHECK[0:0]$28
(define-fun |half_adder#49| ((state |half_adder_s|)) Bool (not (or  (= ((_ extract 0 0) (|half_adder#19| state)) #b1) false))) ; $0$formal$half_adder.sv:90$8_CHECK[0:0]$42
(define-fun |half_adder#50| ((state |half_adder_s|)) (_ BitVec 1) (ite (= ((_ extract 0 0) (|half_adder#1| state)) #b1) (|half_adder#27| state) (ite (|half_adder#49| state) #b1 #b0))) ; $0$formal$half_adder.sv:77$2_CHECK[0:0]$30
(define-fun |half_adder#51| ((state |half_adder_s|)) Bool (not (or  (= ((_ extract 0 0) (|half_adder#14| state)) #b1) false))) ; $logic_not$half_adder.sv:80$55_Y
(define-fun |half_adder#52| ((state |half_adder_s|)) (_ BitVec 1) (ite (= ((_ extract 0 0) (|half_adder#16| state)) #b1) (ite (|half_adder#51| state) #b1 #b0) (|half_adder#26| state))) ; $procmux$109_Y
(define-fun |half_adder#53| ((state |half_adder_s|)) (_ BitVec 1) (ite (= ((_ extract 0 0) (|half_adder#1| state)) #b1) (|half_adder#52| state) (|half_adder#25| state))) ; $0$formal$half_adder.sv:80$3_CHECK[0:0]$32
(define-fun |half_adder#54| ((state |half_adder_s|)) Bool (not (or  (= ((_ extract 0 0) (|half_adder#20| state)) #b1) false))) ; $logic_not$half_adder.sv:81$56_Y
(define-fun |half_adder#55| ((state |half_adder_s|)) (_ BitVec 1) (ite (= ((_ extract 0 0) (|half_adder#16| state)) #b1) (ite (|half_adder#54| state) #b1 #b0) (|half_adder#24| state))) ; $procmux$119_Y
(define-fun |half_adder#56| ((state |half_adder_s|)) (_ BitVec 1) (ite (= ((_ extract 0 0) (|half_adder#1| state)) #b1) (|half_adder#55| state) (|half_adder#23| state))) ; $0$formal$half_adder.sv:81$4_CHECK[0:0]$34
(define-fun |half_adder#57| ((state |half_adder_s|)) Bool (not (or  (|half_adder#3| state) false))) ; $logic_not$half_adder.sv:92$59_Y
(define-fun |half_adder#58| ((state |half_adder_s|)) Bool (not (or  (|half_adder#4| state) false))) ; $logic_not$half_adder.sv:92$60_Y
(define-fun |half_adder#59| ((state |half_adder_s|)) Bool (and (or  (|half_adder#57| state) false) (or  (|half_adder#58| state) false))) ; $0$formal$half_adder.sv:92$9_CHECK[0:0]$44
(define-fun |half_adder#60| ((state |half_adder_s|)) Bool (and (or  (|half_adder#57| state) false) (or  (|half_adder#4| state) false))) ; $0$formal$half_adder.sv:93$10_CHECK[0:0]$46
(define-fun |half_adder#61| ((state |half_adder_s|)) Bool (and (or  (|half_adder#3| state) false) (or  (|half_adder#58| state) false))) ; $0$formal$half_adder.sv:94$11_CHECK[0:0]$48
(define-fun |half_adder#62| ((state |half_adder_s|)) (_ BitVec 1) (ite (= ((_ extract 0 0) (|half_adder#1| state)) #b1) (ite (|half_adder#5| state) #b1 #b0) #b0)) ; $auto$rtlil.cc:2558:Mux$172
(define-fun |half_adder#63| ((state |half_adder_s|)) (_ BitVec 1) (ite (= ((_ extract 0 0) (|half_adder#1| state)) #b1) #b1 #b0)) ; $auto$rtlil.cc:2558:Mux$168
(define-fun |half_adder#64| ((state |half_adder_s|)) (_ BitVec 1) (ite (= ((_ extract 0 0) (|half_adder#1| state)) #b1) (ite (|half_adder#4| state) #b1 #b0) #b0)) ; $auto$rtlil.cc:2558:Mux$166
(define-fun |half_adder#65| ((state |half_adder_s|)) (_ BitVec 1) (ite (= ((_ extract 0 0) (|half_adder#1| state)) #b1) (ite (|half_adder#3| state) #b1 #b0) #b0)) ; $auto$rtlil.cc:2558:Mux$164
(define-fun |half_adder#66| ((state |half_adder_s|)) (_ BitVec 1) (ite (= ((_ extract 0 0) (|half_adder#1| state)) #b1) (ite (|half_adder#8| state) #b1 #b0) #b0)) ; $auto$rtlil.cc:2558:Mux$170
(define-fun |half_adder_a| ((state |half_adder_s|)) Bool (and
  (|half_adder_a 0| state)
  (|half_adder_a 1| state)
  (|half_adder_a 2| state)
  (|half_adder_a 3| state)
))
(define-fun |half_adder_u| ((state |half_adder_s|)) Bool 
  (|half_adder_u 0| state)
)
(define-fun |half_adder_i| ((state |half_adder_s|)) Bool (and
  (= (= ((_ extract 0 0) (|half_adder#40| state)) #b1) false) ; $formal$half_adder.sv:86$5_EN
  (= (= ((_ extract 0 0) (|half_adder#41| state)) #b1) false) ; $formal$half_adder.sv:80$3_EN
  (= (= ((_ extract 0 0) (|half_adder#42| state)) #b1) false) ; $formal$half_adder.sv:76$1_EN
  (= (= ((_ extract 0 0) (|half_adder#15| state)) #b1) false) ; $auto$async2sync.cc:171:execute$157
))
(define-fun |half_adder_h| ((state |half_adder_s|)) Bool true)
(define-fun |half_adder_t| ((state |half_adder_s|) (next_state |half_adder_s|)) Bool (and
  (= (|half_adder#44| state) (|half_adder#42| next_state)) ; $procdff$125 $formal$half_adder.sv:76$1_EN
  (= (|half_adder#46| state) (|half_adder#41| next_state)) ; $procdff$129 $formal$half_adder.sv:80$3_EN
  (= #b1 (|half_adder#40| next_state)) ; $procdff$133 $formal$half_adder.sv:86$5_EN
  (= (|half_adder#48| state) (|half_adder#39| next_state)) ; $procdff$124 \_witness_.anyinit_procdff_124
  (= (|half_adder#50| state) (|half_adder#38| next_state)) ; $procdff$126 \_witness_.anyinit_procdff_126
  (= (|half_adder#53| state) (|half_adder#37| next_state)) ; $procdff$128 \_witness_.anyinit_procdff_128
  (= (|half_adder#56| state) (|half_adder#36| next_state)) ; $procdff$130 \_witness_.anyinit_procdff_130
  (= (|half_adder#2| state) (|half_adder#35| next_state)) ; $procdff$132 \_witness_.anyinit_procdff_132
  (= (ite (|half_adder#47| state) #b1 #b0) (|half_adder#34| next_state)) ; $procdff$134 \_witness_.anyinit_procdff_134
  (= (|half_adder#19| state) (|half_adder#33| next_state)) ; $procdff$136 \_witness_.anyinit_procdff_136
  (= (ite (|half_adder#49| state) #b1 #b0) (|half_adder#32| next_state)) ; $procdff$138 \_witness_.anyinit_procdff_138
  (= (ite (|half_adder#59| state) #b1 #b0) (|half_adder#31| next_state)) ; $procdff$140 \_witness_.anyinit_procdff_140
  (= (ite (|half_adder#60| state) #b1 #b0) (|half_adder#30| next_state)) ; $procdff$142 \_witness_.anyinit_procdff_142
  (= (ite (|half_adder#61| state) #b1 #b0) (|half_adder#29| next_state)) ; $procdff$144 \_witness_.anyinit_procdff_144
  (= (ite (|half_adder#5| state) #b1 #b0) (|half_adder#28| next_state)) ; $procdff$146 \_witness_.anyinit_procdff_146
  (= (|half_adder#62| state) (|half_adder#18| next_state)) ; $procdff$152 \_witness_.anyinit_procdff_152
  (= (|half_adder#63| state) (|half_adder#15| next_state)) ; $procdff$150 $auto$async2sync.cc:171:execute$157
  (= (|half_adder#64| state) (|half_adder#11| next_state)) ; $procdff$149 \_witness_.anyinit_procdff_149
  (= (|half_adder#65| state) (|half_adder#9| next_state)) ; $procdff$148 \_witness_.anyinit_procdff_148
  (= (|half_adder#66| state) (|half_adder#0| next_state)) ; $procdff$151 \_witness_.anyinit_procdff_151
)) ; end of module half_adder
; yosys-smt2-topmod half_adder
; end of yosys output
